(set-info :smt-lib-version 2.6)
(set-logic QF_UFLRA)
(set-info :source |
MathSat group

|)
(set-info :category "random")
(set-info :status sat)
(declare-fun f0_1 (Real) Real)
(declare-fun f0_2 (Real Real) Real)
(declare-fun f0_3 (Real Real Real) Real)
(declare-fun f0_4 (Real Real Real Real) Real)
(declare-fun f1_1 (Real) Real)
(declare-fun f1_2 (Real Real) Real)
(declare-fun f1_3 (Real Real Real) Real)
(declare-fun f1_4 (Real Real Real Real) Real)
(declare-fun x0 () Real)
(declare-fun x1 () Real)
(declare-fun x2 () Real)
(declare-fun x3 () Real)
(declare-fun x4 () Real)
(declare-fun x5 () Real)
(declare-fun x6 () Real)
(declare-fun x7 () Real)
(declare-fun x8 () Real)
(declare-fun x9 () Real)
(declare-fun x10 () Real)
(declare-fun x11 () Real)
(declare-fun x12 () Real)
(declare-fun x13 () Real)
(declare-fun x14 () Real)
(declare-fun x15 () Real)
(declare-fun x16 () Real)
(declare-fun x17 () Real)
(declare-fun x18 () Real)
(declare-fun x19 () Real)
(declare-fun P0 () Bool)
(declare-fun P1 () Bool)
(declare-fun P2 () Bool)
(declare-fun P3 () Bool)
(declare-fun P4 () Bool)
(declare-fun P5 () Bool)
(declare-fun P6 () Bool)
(declare-fun P7 () Bool)
(declare-fun P8 () Bool)
(declare-fun P9 () Bool)
(declare-fun P10 () Bool)
(declare-fun P11 () Bool)
(declare-fun P12 () Bool)
(declare-fun P13 () Bool)
(declare-fun P14 () Bool)
(declare-fun P15 () Bool)
(declare-fun P16 () Bool)
(declare-fun P17 () Bool)
(declare-fun P18 () Bool)
(declare-fun P19 () Bool)
(assert (let ((?v_113 (f1_1 x12)) (?v_64 (- (+ (* 4 x2) (* 29 x18)) (* 21 x14))) (?v_6 (f0_1 x15)) (?v_28 (f0_1 x2)) (?v_5 (f0_2 x13 x11)) (?v_2 (f1_2 x3 x18)) (?v_104 (f0_2 x11 x16)) (?v_79 (f0_2 x9 x14)) (?v_14 (f1_1 x14)) (?v_18 (f1_1 x6))) (let ((?v_13 (f1_1 ?v_6)) (?v_166 (f1_2 x19 x17)) (?v_69 (f1_1 ?v_14)) (?v_152 (f1_2 x14 x18))) (let ((?v_30 (f1_2 ?v_13 x7)) (?v_36 (f0_1 x6)) (?v_12 (f1_1 ?v_2)) (?v_105 (f1_1 x2)) (?v_3 (f0_2 x7 x5)) (?v_34 (f1_1 x16)) (?v_38 (f0_2 x16 x13)) (?v_11 (f0_1 x0)) (?v_8 (f0_2 x8 x11)) (?v_109 (f0_1 x17)) (?v_171 (= x7 ?v_18))) (let ((?v_43 (< ?v_38 10)) (?v_218 (= (f0_2 x1 x9) ?v_113)) (?v_220 (= x5 x6)) (?v_72 (< (f0_1 x16) 4)) (?v_82 (< x15 10)) (?v_29 (< ?v_166 17)) (?v_96 (= ?v_152 x16)) (?v_163 (= ?v_152 x2)) (?v_178 (< ?v_2 0)) (?v_161 (< ?v_2 25)) (?v_140 (< ?v_36 8)) (?v_87 (= ?v_38 ?v_79)) (?v_137 (< ?v_18 23)) (?v_55 (< ?v_3 1)) (?v_129 (= ?v_109 x12)) (?v_103 (< ?v_12 12)) (?v_125 (< (f1_2 x18 x8) 13)) (?v_225 (< ?v_79 28)) (?v_191 (< x1 23)) (?v_183 (< x10 9)) (?v_195 (< ?v_166 6)) (?v_46 (< x9 20)) (?v_74 (< x19 15)) (?v_223 (< x5 12)) (?v_20 (< ?v_113 14)) (?v_39 (< (f0_2 x5 x0) 5)) (?v_117 (< ?v_12 17)) (?v_182 (= x7 ?v_34)) (?v_205 (= (f0_1 x4) ?v_105)) (?v_236 (< ?v_152 13)) (?v_135 (= x1 ?v_36)) (?v_122 (< x15 5)) (?v_84 (< x1 3)) (?v_164 (< x14 4)) (?v_169 (= ?v_8 x15))) (let ((?v_139 (not ?v_39)) (?v_174 (not P11)) (?v_90 (not ?v_29)) (?v_130 (not P18)) (?v_49 (not ?v_55)) (?v_110 (not ?v_46)) (?v_61 (not ?v_103)) (?v_52 (not ?v_137)) (?v_76 (not P3)) (?v_198 (not P16)) (?v_126 (not P4)) (?v_112 (not P10)) (?v_93 (not ?v_169)) (?v_89 (not P8)) (?v_176 (not ?v_82)) (?v_159 (not ?v_140)) (?v_62 (not ?v_20)) (?v_227 (not ?v_72)) (?v_41 (not ?v_117)) (?v_194 (not P17)) (?v_121 (not P6)) (?v_189 (not P1)) (?v_118 (not ?v_183)) (?v_186 (not ?v_171)) (?v_71 (not ?v_125)) (?v_108 (not ?v_43)) (?v_153 (not ?v_74)) (?v_177 (not ?v_84)) (?v_124 (not ?v_225)) (?v_199 (not ?v_87)) (?v_180 (not ?v_96)) (?v_172 (not ?v_161)) (?v_148 (not ?v_218)) (?v_170 (not P13)) (?v_214 (not P19)) (?v_165 (not ?v_135)) (?v_167 (not P0)) (?v_209 (not P14)) (?v_196 (not P2)) (?v_224 (not P15)) (?v_185 (not ?v_182)) (?v_192 (not P9)) (?v_210 (not ?v_122)) (?v_219 (not ?v_163)) (?v_206 (not P12)) (?v_200 (not ?v_195)) (?v_228 (not P5)) (?v_238 (not ?v_178)) (?v_215 (not ?v_205)) (?v_234 (not ?v_191)) (?v_244 (not ?v_236)) (?v_53 (+ (* 16 x8) (* 27 x18) (* 2 x13)))) (let ((?v_17 (< ?v_53 25)) (?v_173 (< (+ (* 9 ?v_14) (* 18 ?v_14) (* 9 ?v_12)) 8))) (let ((?v_193 (not ?v_173)) (?v_100 (+ (* 7 x10) (* 4 x5) (* 24 x7)))) (let ((?v_85 (< ?v_100 4))) (let ((?v_197 (not ?v_85)) (?v_136 (< ?v_100 20))) (let ((?v_231 (not ?v_136)) (?v_35 (+ (* (- 28) ?v_18) (* 25 ?v_3) (* 11 ?v_2)))) (let ((?v_156 (< ?v_35 (- 9)))) (let ((?v_21 (not ?v_156)) (?v_25 (- (+ (* (- 19) x8) (* 26 x3)) (* 21 x18)))) (let ((?v_0 (f1_2 (+ (- (* 25 x1) (* 5 ?v_25)) (* 23 ?v_6)) (+ (- (* 8 x7) (* 16 x6)) (* 7 x4))))) (let ((?v_88 (= ?v_0 ?v_11)) (?v_51 (< ?v_0 10)) (?v_1 (- (+ (* (- 10) x7) (* 13 x14)) (* 5 x3)))) (let ((?v_54 (+ (* 17 ?v_1) (* 24 x8) (* 23 ?v_28)))) (let ((?v_42 (< ?v_54 (- 20))) (?v_24 (- (+ (* (- 17) x9) (* 27 x2)) (* 12 x6)))) (let ((?v_23 (- (+ (* (- 3) ?v_8) (* 15 ?v_5)) (* 3 ?v_24))) (?v_4 (+ (- (* (- 6) x19) (* 4 x15)) (* 23 x18)))) (let ((?v_48 (= ?v_23 (- (+ (* 23 ?v_64) (* 17 (f1_2 ?v_1 x1))) (* 15 ?v_4)))) (?v_16 (< ?v_12 (- 5))) (?v_9 (< ?v_34 (- 14))) (?v_7 (- (- (* (- 4) ?v_3) (* 19 ?v_4)) (* 25 ?v_5)))) (let ((?v_212 (< ?v_7 (- 28)))) (let ((?v_31 (not ?v_212)) (?v_132 (- (+ (* (- 17) ?v_13) (* 6 ?v_4)) (* 12 (+ (* (- 7) x16) (* 12 x14) (* 20 x17)))))) (let ((?v_10 (< ?v_132 17)) (?v_120 (< ?v_0 (- 15))) (?v_86 (= ?v_7 ?v_8))) (let ((?v_19 (not ?v_86)) (?v_26 (< x2 (- 7))) (?v_70 (< ?v_105 (- 15)))) (let ((?v_91 (not ?v_70)) (?v_92 (= ?v_11 (+ (* (- 10) ?v_12) (* 15 ?v_6) (* 11 ?v_13))))) (let ((?v_60 (not ?v_92)) (?v_15 (< (f0_2 (f1_2 x8 ?v_6) ?v_30) (- 1))) (?v_128 (not ?v_16)) (?v_22 (< (- (+ (* (- 23) x0) (* 8 x1)) (* 8 x10)) 29)) (?v_65 (f1_2 ?v_1 x9))) (let ((?v_102 (< ?v_65 6))) (let ((?v_111 (not ?v_102)) (?v_213 (< ?v_38 (- 24)))) (let ((?v_147 (not ?v_213))) (let ((?v_37 (or ?v_19 ?v_147)) (?v_27 (< (f1_1 x3) (- 2)))) (let ((?v_143 (not ?v_27)) (?v_150 (< ?v_1 6))) (let ((?v_56 (not ?v_150)) (?v_160 (< x1 (- 14))) (?v_144 (< ?v_11 (- 7))) (?v_204 (= ?v_23 x7))) (let ((?v_240 (not ?v_204)) (?v_40 (+ (* (- 20) x13) (* 24 ?v_69) (* 6 ?v_2)))) (let ((?v_203 (< ?v_40 (- 9)))) (let ((?v_80 (not ?v_203)) (?v_32 (< ?v_24 (- 13))) (?v_47 (< ?v_25 (- 26))) (?v_116 (not ?v_26)) (?v_106 (< (f0_2 x3 x1) (- 10)))) (let ((?v_232 (not ?v_106)) (?v_58 (< (f1_2 x13 x6) (- 11))) (?v_33 (< (- (+ (* 10 ?v_28) (* 23 x3)) (* 11 x13)) (- 23)))) (let ((?v_57 (not ?v_33)) (?v_75 (< ?v_30 (- 25)))) (let ((?v_45 (not ?v_75)) (?v_81 (< ?v_36 (- 12))) (?v_168 (< ?v_34 (- 5))) (?v_50 (< ?v_35 (- 16))) (?v_221 (< x2 (- 29)))) (let ((?v_73 (not ?v_221)) (?v_59 (< ?v_104 (- 5))) (?v_98 (< x5 (- 9)))) (let ((?v_66 (not ?v_98)) (?v_44 (< ?v_0 (- 29))) (?v_188 (< ?v_40 28))) (let ((?v_154 (not ?v_188)) (?v_155 (< x16 (- 29))) (?v_123 (not ?v_42)) (?v_201 (not ?v_47)) (?v_97 (< (f1_1 x8) (- 23))) (?v_222 (not ?v_48)) (?v_68 (< ?v_30 (- 5)))) (let ((?v_190 (not ?v_68)) (?v_184 (not ?v_32)) (?v_134 (not ?v_51)) (?v_83 (< ?v_35 0)) (?v_63 (< (+ (* (- 4) x11) (* 13 ?v_53) (* 18 ?v_54)) (- 19)))) (let ((?v_131 (not ?v_63)) (?v_99 (< x11 (- 15))) (?v_119 (< x15 (- 17))) (?v_67 (+ (* (- 25) ?v_64) (* 28 x9) (* 5 ?v_65)))) (let ((?v_145 (= ?v_64 ?v_67)) (?v_78 (= x8 ?v_67)) (?v_77 (= ?v_69 ?v_0)) (?v_175 (not ?v_10)) (?v_146 (< ?v_6 (- 1)))) (let ((?v_114 (not ?v_146)) (?v_235 (not ?v_77)) (?v_95 (< ?v_79 (- 19)))) (let ((?v_141 (not ?v_95)) (?v_94 (not ?v_81)) (?v_162 (not ?v_83)) (?v_107 (not ?v_88)) (?v_101 (not ?v_58)) (?v_157 (not ?v_97)) (?v_211 (< ?v_104 (- 13)))) (let ((?v_115 (not ?v_211)) (?v_179 (< ?v_105 (- 4))) (?v_151 (< ?v_109 (- 17))) (?v_138 (< (f1_2 ?v_79 x12) (- 7)))) (let ((?v_142 (not ?v_138)) (?v_133 (not ?v_119)) (?v_216 (not ?v_120)) (?v_127 (< x12 (- 24))) (?v_149 (< (f0_2 x18 x7) (- 11))) (?v_208 (< ?v_132 (- 29))) (?v_241 (not ?v_78)) (?v_158 (not ?v_144)) (?v_202 (= ?v_36 (+ (- (* (- 2) x17) (* 19 x11)) (* 2 x6))))) (let ((?v_181 (not ?v_202)) (?v_242 (not ?v_149)) (?v_229 (not ?v_155)) (?v_187 (not ?v_22)) (?v_243 (not ?v_44)) (?v_226 (not ?v_50)) (?v_207 (not ?v_145)) (?v_237 (< ?v_35 18))) (let ((?v_239 (not ?v_237)) (?v_217 (not ?v_160)) (?v_230 (not ?v_151)) (?v_233 (not ?v_59))) (and (and (and (and (and (and (and (and (and (and (and (and (and (and (and (and (and (and (and (and (and (and (and (and (and (and (and (and (and (and (and (and (and (and (and (and (and (and (and (and (and (and (and (and (and (and (and (and (and (and (and (and (and (and (and (and (and (and (and (and (and (and (and (and (and (and (and (and (and (and (and (and (and (and (and (and (and (and (and (and (and (and (and (and (and (and (and (and (and (and (and (and (and (and (and (and (and (and (and (and (and (and (and (and (and (and (and (and (and (and (and (and (and (and (and (and (and (and (and (and (and (and (and (and (and (and (and (and (and (and (and (and (and (and (and (and (and (and (and (and (and (and (and (and (and (and (and (and (and (and (and (and (and (and (and (and (and (and (and (and (and (and (and (and (and (and (and (and (and (and (and (and (and (and (and (and (and (and (and (and (and (and (and (and (and (and (and (and (and (and (and (and (and (and (and (and (and (and (and (and (and (and (and (and (and (and (and (and (and (and (and (and (and (and (and (and (and (and (and (and (and (and (and (and (and (and (and (and (and (and (and (and (and (and (and (and (and (and (and (and (and (and (and (and (and (and (and (and (and (and (and (and (and (and (and (and (and (and (and (and (and (and (and (and (and (and (and (and (and (and (and (and (and (and (and (and (and (and (and (and (and (and (and (and (and (and (and (and (and (and (and (and (and (and (and (and (and (and (and (or (or ?v_139 ?v_21) ?v_174) (or (or ?v_88 ?v_51) ?v_42)) (or (or ?v_48 ?v_16) ?v_9)) (or (or ?v_31 ?v_20) ?v_90)) (or (or ?v_10 ?v_120) P14)) (or (or ?v_19 ?v_26) ?v_9)) (or (or ?v_130 ?v_49) ?v_17)) (or (or ?v_129 ?v_91) ?v_10)) (or (or ?v_60 ?v_193) ?v_10)) (or (or ?v_15 ?v_15) ?v_110)) (or (or ?v_128 ?v_61) ?v_17)) (or (or ?v_22 ?v_111) ?v_52)) (or ?v_37 ?v_143)) (or (or ?v_56 P7) ?v_20)) (or (or ?v_21 ?v_76) ?v_160)) (or (or ?v_144 ?v_22) ?v_240)) (or (or P14 ?v_80) ?v_198)) (or (or ?v_32 ?v_126) ?v_47)) (or (or ?v_116 P5) ?v_27)) (or (or ?v_232 ?v_58) ?v_112)) (or (or ?v_57 P4) ?v_93)) (or (or ?v_29 ?v_89) ?v_176)) (or (or ?v_45 P10) ?v_31)) (or (or ?v_81 ?v_32) ?v_33)) (or (or ?v_168 ?v_50) ?v_73)) (or (or P0 ?v_159) ?v_15)) (or ?v_37 ?v_43)) (or (or ?v_62 P9) ?v_39)) (or (or ?v_227 ?v_59) ?v_66)) (or (or ?v_44 ?v_41) ?v_154)) (or (or ?v_155 P1) ?v_41)) (or (or ?v_123 ?v_43) ?v_194)) (or (or ?v_44 ?v_45) ?v_121)) (or (or ?v_42 ?v_189) ?v_46)) (or (or ?v_201 ?v_44) ?v_97)) (or (or ?v_222 ?v_190) ?v_118)) (or (or ?v_49 ?v_50) ?v_184)) (or (or ?v_134 ?v_83) ?v_74)) (or (or ?v_42 ?v_52) ?v_131)) (or (or ?v_55 ?v_29) ?v_56)) (or (or ?v_57 ?v_58) ?v_99)) (or (or ?v_186 P18) ?v_71)) (or (or ?v_59 ?v_85) ?v_119)) (or (or ?v_60 ?v_61) ?v_62)) (or (or ?v_63 ?v_145) ?v_66)) (or (or ?v_78 ?v_68) (not ?v_9))) (or (or ?v_77 ?v_84) ?v_70)) (or (or ?v_87 ?v_122) ?v_71)) (or (or ?v_96 ?v_72) ?v_175)) (or (or ?v_58 (not ?v_220)) ?v_73)) (or (or ?v_108 ?v_153) ?v_114)) (or (or ?v_52 ?v_60) ?v_75)) (or (or ?v_76 ?v_235) ?v_78)) (or (or ?v_22 P19) ?v_141)) (or (or ?v_78 ?v_80) ?v_94)) (or (or ?v_82 ?v_135) ?v_162)) (or (or ?v_46 ?v_177) ?v_197)) (or (or ?v_124 ?v_86) ?v_199)) (or (or ?v_47 ?v_63) ?v_107)) (or (or ?v_89 ?v_90) ?v_91)) (or (or ?v_92 ?v_93) ?v_94)) (or (or ?v_95 ?v_101) ?v_180)) (or (or ?v_157 ?v_98) ?v_99)) (or (or ?v_136 ?v_101) ?v_92)) (or (or ?v_102 ?v_68) ?v_41)) (or (or ?v_103 ?v_19) ?v_99)) (or (or ?v_115 ?v_179) ?v_106)) (or (or P8 ?v_107) ?v_19)) (or (or ?v_108 ?v_9) P4)) (or (or ?v_151 ?v_110) (not ?v_164))) (or (or ?v_172 ?v_9) ?v_98)) (or (or ?v_111 ?v_112) ?v_58)) (or (or ?v_148 ?v_110) ?v_142)) (or (or ?v_114 ?v_115) P18)) (or (or ?v_116 P6) ?v_29)) (or (or ?v_117 ?v_112) ?v_118)) (or (or ?v_133 ?v_216) ?v_60)) (or (or ?v_121 ?v_122) ?v_127)) (or (or ?v_66 ?v_123) ?v_124)) (or (or ?v_125 ?v_82) ?v_126)) (or (or ?v_127 ?v_149) ?v_26)) (or (or ?v_119 ?v_83) ?v_9)) (or (or ?v_128 ?v_103) ?v_129)) (or (or ?v_130 ?v_131) (not ?v_208))) (or (or ?v_133 ?v_20) ?v_134)) (or (or ?v_135 ?v_136) ?v_241)) (or (or ?v_137 ?v_138) P5)) (or (or ?v_21 ?v_112) P19)) (or (or P10 ?v_139) ?v_131)) (or (or ?v_140 ?v_136) ?v_10)) (or (or ?v_127 ?v_141) ?v_142)) (or (or ?v_139 ?v_143) ?v_158)) (or (or ?v_145 ?v_46) ?v_146)) (or (or ?v_147 ?v_148) ?v_181)) (or (or P16 P16) ?v_49)) (or (or ?v_136 ?v_178) ?v_242)) (or (or ?v_170 ?v_214) ?v_138)) (or (or P11 ?v_150) ?v_32)) (or (or P10 ?v_151) ?v_163)) (or (or ?v_153 P2) ?v_68)) (or (or ?v_29 ?v_145) ?v_135)) (or (or ?v_154 ?v_229) ?v_10)) (or (or ?v_156 ?v_157) ?v_115)) (or (or ?v_158 (not ?v_129)) ?v_159)) (or (or ?v_98 ?v_160) ?v_161)) (or (or P14 ?v_162) ?v_60)) (or (or ?v_163 P3) ?v_164)) (or (or ?v_101 ?v_165) ?v_120)) (or (or P9 ?v_191) ?v_43)) (or (or ?v_165 ?v_21) ?v_98)) (or (or ?v_167 P2) ?v_231)) (or (or ?v_140 ?v_150) ?v_182)) (or (or ?v_70 ?v_195) ?v_167)) (or (or ?v_45 ?v_168) ?v_161)) (or (or ?v_81 ?v_169) ?v_209)) (or (or ?v_170 ?v_146) ?v_62)) (or (or ?v_154 ?v_103) ?v_146)) (or (or ?v_73 ?v_158) ?v_171)) (or (or ?v_27 ?v_147) ?v_9)) (or (or ?v_101 ?v_172) ?v_71)) (or (or ?v_161 ?v_173) P8)) (or (or ?v_9 ?v_174) P1)) (or (or ?v_131 ?v_175) ?v_71)) (or (or ?v_168 ?v_126) ?v_15)) (or (or ?v_236 ?v_50) ?v_196)) (or (or ?v_176 ?v_224) ?v_73)) (or (or ?v_125 ?v_137) ?v_144)) (or (or ?v_177 ?v_178) ?v_95)) (or (or ?v_51 ?v_99) ?v_179)) (or (or ?v_119 ?v_180) ?v_181)) (or (or ?v_59 ?v_21) ?v_185)) (or (or ?v_45 ?v_26) P1)) (or (or ?v_20 ?v_187) ?v_168)) (or (or ?v_173 ?v_88) ?v_183)) (or (or ?v_26 ?v_61) ?v_21)) (or (or ?v_205 ?v_116) ?v_243)) (or (or ?v_184 ?v_185) ?v_186)) (or (or P14 ?v_101) ?v_226)) (or (or ?v_39 ?v_78) ?v_192)) (or (or ?v_94 P2) ?v_187)) (or (or ?v_94 ?v_21) ?v_107)) (or (or ?v_76 ?v_188) ?v_160)) (or (or ?v_189 ?v_147) ?v_81)) (or (or ?v_207 ?v_58) ?v_131)) (or (or ?v_111 ?v_90) ?v_81)) (or (or P0 P4) ?v_164)) (or (or ?v_131 ?v_190) ?v_85)) (or (or ?v_191 ?v_76) ?v_130)) (or (or ?v_192 ?v_210) ?v_86)) (or (or ?v_193 ?v_39) ?v_194)) (or (or ?v_219 ?v_96) ?v_62)) (or (or ?v_171 ?v_177) ?v_206)) (or (or ?v_200 ?v_239) ?v_196)) (or (or P9 ?v_91) ?v_178)) (or (or ?v_197 ?v_52) ?v_153)) (or (or ?v_119 ?v_198) ?v_187)) (or (or ?v_83 ?v_84) ?v_194)) (or (or ?v_119 ?v_185) P12)) (or (or ?v_142 ?v_199) ?v_228)) (or (or ?v_171 (not ?v_17)) ?v_131)) (or (or ?v_200 ?v_120) ?v_201)) (or (or ?v_131 ?v_187) ?v_202)) (or (or ?v_160 ?v_186) ?v_131)) (or (or ?v_148 ?v_91) ?v_203)) (or (or ?v_238 ?v_47) ?v_46)) (or (or ?v_204 ?v_157) ?v_147)) (or (or ?v_215 P17) ?v_206)) (or (or ?v_203 ?v_76) ?v_173)) (or (or ?v_197 ?v_207) ?v_97)) (or (or ?v_208 ?v_144) P18)) (or (or ?v_209 ?v_210) ?v_205)) (or (or (not ?v_223) ?v_211) ?v_212)) (or (or ?v_76 P16) ?v_194)) (or (or ?v_120 (not P7)) ?v_56)) (or (or ?v_185 ?v_73) ?v_217)) (or (or ?v_121 ?v_213) ?v_214)) (or (or ?v_180 ?v_138) ?v_215)) (or (or ?v_154 P12) ?v_118)) (or (or ?v_216 ?v_217) ?v_185)) (or (or ?v_27 ?v_120) ?v_218)) (or (or ?v_219 ?v_118) ?v_83)) (or (or ?v_189 ?v_161) ?v_78)) (or (or ?v_99 ?v_206) ?v_22)) (or (or ?v_118 ?v_178) ?v_55)) (or (or ?v_175 ?v_51) ?v_216)) (or (or ?v_163 ?v_209) ?v_220)) (or (or ?v_19 ?v_20) ?v_198)) (or (or ?v_187 ?v_159) ?v_26)) (or (or P0 ?v_123) ?v_56)) (or (or ?v_165 ?v_203) ?v_178)) (or (or ?v_230 ?v_197) ?v_149)) (or (or ?v_125 ?v_17) ?v_193)) (or (or ?v_221 ?v_222) ?v_133)) (or (or ?v_161 ?v_223) ?v_224)) (or (or ?v_155 ?v_225) ?v_111)) (or (or ?v_114 ?v_63) ?v_176)) (or (or ?v_201 ?v_99) P19)) (or (or ?v_205 ?v_86) ?v_120)) (or (or P6 ?v_194) ?v_156)) (or (or ?v_149 P11) ?v_201)) (or (or ?v_209 ?v_145) ?v_170)) (or (or ?v_90 P14) ?v_184)) (or (or ?v_198 ?v_63) ?v_88)) (or (or ?v_46 ?v_200) ?v_144)) (or (or ?v_226 ?v_137) ?v_22)) (or (or ?v_149 P19) ?v_197)) (or (or ?v_19 ?v_194) ?v_149)) (or (or ?v_93 ?v_78) ?v_185)) (or (or ?v_171 (not ?v_15)) ?v_161)) (or (or ?v_103 ?v_133) ?v_188)) (or (or ?v_227 ?v_17) ?v_139)) (or (or ?v_174 ?v_151) ?v_122)) (or (or ?v_89 ?v_145) ?v_192)) (or (or ?v_115 (not ?v_168)) P4)) (or (or ?v_179 ?v_121) ?v_214)) (or (or ?v_33 ?v_215) ?v_196)) (or (or ?v_129 ?v_175) ?v_193)) (or (or P10 ?v_133) ?v_184)) (or (or ?v_127 P15) ?v_226)) (or (or ?v_99 ?v_228) ?v_229)) (or (or ?v_66 ?v_43) ?v_20)) (or (or ?v_172 ?v_230) ?v_134)) (or (or ?v_148 ?v_70) ?v_159)) (or (or ?v_114 ?v_124) ?v_136)) (or (or ?v_195 ?v_51) ?v_180)) (or (or P8 ?v_211) ?v_66)) (or (or ?v_182 ?v_144) ?v_121)) (or (or ?v_78 ?v_234) (not ?v_127))) (or (or ?v_142 ?v_86) ?v_231)) (or (or P15 ?v_81) ?v_16)) (or (or ?v_188 ?v_151) P3)) (or (or ?v_50 ?v_232) ?v_55)) (or (or ?v_168 ?v_51) ?v_17)) (or (or ?v_119 ?v_45) ?v_59)) (or (or ?v_81 ?v_55) ?v_201)) (or (or ?v_233 ?v_194) ?v_204)) (or (or ?v_91 ?v_233) ?v_158)) (or (or ?v_131 ?v_22) ?v_108)) (or (or ?v_32 ?v_93) ?v_95)) (or (or ?v_102 ?v_229) ?v_126)) (or (or ?v_78 ?v_182) P16)) (or (or ?v_150 ?v_80) ?v_163)) (or (or ?v_126 ?v_223) ?v_234)) (or (or ?v_222 ?v_90) ?v_172)) (or (or ?v_232 ?v_174) ?v_157)) (or (or ?v_164 ?v_193) ?v_91)) (or (or ?v_96 ?v_76) ?v_138)) (or (or ?v_229 ?v_99) ?v_98)) (or (or ?v_56 ?v_231) ?v_80)) (or (or ?v_63 ?v_180) ?v_98)) (or (or ?v_225 ?v_153) ?v_17)) (or (or ?v_235 ?v_244) ?v_83)) (or (or ?v_140 ?v_86) ?v_71)) (or (or ?v_175 ?v_139) P16)) (or (or ?v_97 ?v_87) ?v_216)) (or (or ?v_188 ?v_121) ?v_177)) (or (or ?v_106 ?v_68) ?v_164)) (or (or ?v_237 ?v_238) ?v_225)) (or (or ?v_239 ?v_226) ?v_161)) (or (or ?v_70 ?v_119) ?v_158)) (or (or ?v_51 ?v_58) ?v_136)) (or (or ?v_114 ?v_129) ?v_76)) (or (or ?v_240 ?v_177) ?v_196)) (or (or ?v_49 ?v_143) ?v_206)) (or (or ?v_197 ?v_145) ?v_170)) (or (or ?v_162 ?v_86) ?v_140)) (or (or ?v_27 ?v_17) ?v_148)) (or (or ?v_62 ?v_134) ?v_241)) (or (or P19 ?v_47) P3)) (or (or ?v_21 ?v_99) ?v_215)) (or (or ?v_218 ?v_131) ?v_241)) (or (or ?v_187 ?v_215) P13)) (or (or ?v_130 ?v_183) ?v_22)) (or (or ?v_26 ?v_155) ?v_158)) (or (or ?v_19 ?v_184) ?v_192)) (or (or ?v_211 P11) ?v_215)) (or (or ?v_77 ?v_43) ?v_238)) (or (or ?v_184 ?v_131) ?v_211)) (or (or ?v_22 ?v_137) ?v_123)) (or (or ?v_111 ?v_171) ?v_129)) (or (or P9 ?v_76) ?v_48)) (or (or ?v_242 ?v_148) ?v_115)) (or (or ?v_160 ?v_84) ?v_243)) (or (or ?v_204 ?v_15) ?v_244)) (or (or ?v_66 ?v_164) ?v_209)) (or (or ?v_239 ?v_173) ?v_96)) (or (or ?v_131 ?v_192) ?v_94)) (or (or ?v_228 (not ?v_99)) ?v_222)) (or (or ?v_161 ?v_134) ?v_215)) (or (or ?v_182 ?v_120) ?v_225)) (or (or ?v_29 ?v_81) ?v_234)) (or (or ?v_230 ?v_206) P11)) (or (or ?v_206 ?v_229) ?v_191)) (or (or ?v_227 ?v_236) ?v_243)) (or (or ?v_171 ?v_204) ?v_88)) (or (or ?v_51 ?v_212) P3)) (or (or P8 ?v_115) ?v_96)) (or (or ?v_133 ?v_90) ?v_68)) (or (or P15 ?v_214) ?v_179)) (or (or P0 ?v_114) ?v_200)))))))))))))))))))))))))))))))))))))))))))))))))))
(check-sat)
(exit)
